c File:  mulsol.i.1.col
c
c SOURCE: Gary Lewandowski (gary@cs.wisc.edu)
c
c DESCRIPTION: Coloring problem generated from a register allocation
c              problem based on real code.
c
c graph #1 from register allocation file mulsol.i
p edge 197 3925
e 1 2
e 1 3
e 1 4
e 1 5
e 1 6
e 1 7
e 1 8
e 1 9
e 1 10
e 1 11
e 1 12
e 1 13
e 1 14
e 1 15
e 1 16
e 1 34
e 1 47
e 1 48
e 1 49
e 1 50
e 1 51
e 1 52
e 1 53
e 1 54
e 1 55
e 1 65
e 1 67
e 1 68
e 1 71
e 1 74
e 1 75
e 1 80
e 1 121
e 1 125
e 1 126
e 1 127
e 1 128
e 1 129
e 1 130
e 1 131
e 1 135
e 1 136
e 1 137
e 1 138
e 1 139
e 1 145
e 1 147
e 1 149
e 1 150
e 1 151
e 1 153
e 1 154
e 1 160
e 1 161
e 1 162
e 1 163
e 1 164
e 1 165
e 1 166
e 1 173
e 1 174
e 1 176
e 1 177
e 1 178
e 1 191
e 1 192
e 1 77
e 1 73
e 1 64
e 1 63
e 1 62
e 1 60
e 1 59
e 1 57
e 1 56
e 1 46
e 1 45
e 1 44
e 1 43
e 1 42
e 1 41
e 1 40
e 1 39
e 1 197
e 1 38
e 1 189
e 1 187
e 1 184
e 1 195
e 1 33
e 1 120
e 1 118
e 1 117
e 1 114
e 1 112
e 1 111
e 1 109
e 1 108
e 1 107
e 1 104
e 1 102
e 1 99
e 1 96
e 1 93
e 1 91
e 1 90
e 1 88
e 1 87
e 1 85
e 1 83
e 1 36
e 1 181
e 1 37
e 1 169
e 1 35
e 1 157
e 1 152
e 1 148
e 1 146
e 1 144
e 1 142
e 2 3
e 2 4
e 2 5
e 2 6
e 2 7
e 2 8
e 2 9
e 2 10
e 2 11
e 2 12
e 2 13
e 2 14
e 2 15
e 2 16
e 2 34
e 2 47
e 2 48
e 2 49
e 2 50
e 2 51
e 2 52
e 2 53
e 2 54
e 2 55
e 2 65
e 2 67
e 2 68
e 2 71
e 2 74
e 2 75
e 2 80
e 2 121
e 2 125
e 2 126
e 2 127
e 2 128
e 2 129
e 2 130
e 2 131
e 2 135
e 2 136
e 2 137
e 2 138
e 2 139
e 2 145
e 2 147
e 2 149
e 2 150
e 2 151
e 2 153
e 2 154
e 2 160
e 2 161
e 2 162
e 2 163
e 2 164
e 2 165
e 2 166
e 2 173
e 2 174
e 2 176
e 2 177
e 2 178
e 2 191
e 2 192
e 2 77
e 2 73
e 2 64
e 2 63
e 2 62
e 2 60
e 2 59
e 2 57
e 2 56
e 2 46
e 2 45
e 2 44
e 2 43
e 2 42
e 2 41
e 2 40
e 2 39
e 2 197
e 2 38
e 2 189
e 2 187
e 2 184
e 2 195
e 2 33
e 2 120
e 2 118
e 2 117
e 2 114
e 2 112
e 2 111
e 2 109
e 2 108
e 2 107
e 2 104
e 2 102
e 2 99
e 2 96
e 2 93
e 2 91
e 2 90
e 2 88
e 2 87
e 2 85
e 2 83
e 2 36
e 2 181
e 2 37
e 2 169
e 2 35
e 2 157
e 2 152
e 2 148
e 2 146
e 2 144
e 2 142
e 3 4
e 3 5
e 3 6
e 3 7
e 3 8
e 3 9
e 3 10
e 3 11
e 3 12
e 3 13
e 3 14
e 3 15
e 3 16
e 3 34
e 3 47
e 3 48
e 3 49
e 3 50
e 3 51
e 3 52
e 3 53
e 3 54
e 3 55
e 3 65
e 3 67
e 3 68
e 3 71
e 3 74
e 3 75
e 3 80
e 3 121
e 3 125
e 3 126
e 3 127
e 3 128
e 3 129
e 3 130
e 3 131
e 3 135
e 3 136
e 3 137
e 3 138
e 3 139
e 3 145
e 3 147
e 3 149
e 3 150
e 3 151
e 3 153
e 3 154
e 3 160
e 3 161
e 3 162
e 3 163
e 3 164
e 3 165
e 3 166
e 3 173
e 3 174
e 3 176
e 3 177
e 3 178
e 3 191
e 3 192
e 3 64
e 3 63
e 3 62
e 3 60
e 3 59
e 3 57
e 3 56
e 3 46
e 3 45
e 3 44
e 3 43
e 3 42
e 3 41
e 3 40
e 3 39
e 4 5
e 4 6
e 4 7
e 4 8
e 4 9
e 4 10
e 4 11
e 4 12
e 4 13
e 4 14
e 4 15
e 4 16
e 4 34
e 4 47
e 4 48
e 4 49
e 4 50
e 4 51
e 4 52
e 4 53
e 4 54
e 4 55
e 4 65
e 4 67
e 4 68
e 4 71
e 4 74
e 4 75
e 4 80
e 4 121
e 4 125
e 4 126
e 4 127
e 4 128
e 4 129
e 4 130
e 4 131
e 4 135
e 4 136
e 4 137
e 4 138
e 4 139
e 4 145
e 4 147
e 4 149
e 4 150
e 4 151
e 4 153
e 4 154
e 4 160
e 4 161
e 4 162
e 4 163
e 4 164
e 4 165
e 4 166
e 4 173
e 4 174
e 4 176
e 4 177
e 4 178
e 4 191
e 4 192
e 5 6
e 5 7
e 5 8
e 5 9
e 5 10
e 5 11
e 5 12
e 5 13
e 5 14
e 5 15
e 5 16
e 5 34
e 5 47
e 5 48
e 5 49
e 5 50
e 5 51
e 5 52
e 5 53
e 5 54
e 5 55
e 5 65
e 5 67
e 5 68
e 5 71
e 5 74
e 5 75
e 5 80
e 5 121
e 5 125
e 5 126
e 5 127
e 5 128
e 5 129
e 5 130
e 5 131
e 5 135
e 5 136
e 5 137
e 5 138
e 5 139
e 5 145
e 5 147
e 5 149
e 5 150
e 5 151
e 5 153
e 5 154
e 5 160
e 5 161
e 5 162
e 5 163
e 5 164
e 5 165
e 5 166
e 5 173
e 5 174
e 5 176
e 5 177
e 5 178
e 5 191
e 5 192
e 5 39
e 6 7
e 6 8
e 6 9
e 6 10
e 6 11
e 6 12
e 6 13
e 6 14
e 6 15
e 6 16
e 6 34
e 6 47
e 6 48
e 6 49
e 6 50
e 6 51
e 6 52
e 6 53
e 6 54
e 6 55
e 6 65
e 6 67
e 6 68
e 6 71
e 6 74
e 6 75
e 6 80
e 6 121
e 6 125
e 6 126
e 6 127
e 6 128
e 6 129
e 6 130
e 6 131
e 6 135
e 6 136
e 6 137
e 6 138
e 6 139
e 6 145
e 6 147
e 6 149
e 6 150
e 6 151
e 6 153
e 6 154
e 6 160
e 6 161
e 6 162
e 6 163
e 6 164
e 6 165
e 6 166
e 6 173
e 6 174
e 6 176
e 6 177
e 6 178
e 6 191
e 6 192
e 6 40
e 6 39
e 7 8
e 7 9
e 7 10
e 7 11
e 7 12
e 7 13
e 7 14
e 7 15
e 7 16
e 7 34
e 7 47
e 7 48
e 7 49
e 7 50
e 7 51
e 7 52
e 7 53
e 7 54
e 7 55
e 7 65
e 7 67
e 7 68
e 7 71
e 7 74
e 7 75
e 7 80
e 7 121
e 7 125
e 7 126
e 7 127
e 7 128
e 7 129
e 7 130
e 7 131
e 7 135
e 7 136
e 7 137
e 7 138
e 7 139
e 7 145
e 7 147
e 7 149
e 7 150
e 7 151
e 7 153
e 7 154
e 7 160
e 7 161
e 7 162
e 7 163
e 7 164
e 7 165
e 7 166
e 7 173
e 7 174
e 7 176
e 7 177
e 7 178
e 7 191
e 7 192
e 7 41
e 7 40
e 7 39
e 8 9
e 8 10
e 8 11
e 8 12
e 8 13
e 8 14
e 8 15
e 8 16
e 8 34
e 8 47
e 8 48
e 8 49
e 8 50
e 8 51
e 8 52
e 8 53
e 8 54
e 8 55
e 8 65
e 8 67
e 8 68
e 8 71
e 8 74
e 8 75
e 8 80
e 8 121
e 8 125
e 8 126
e 8 127
e 8 128
e 8 129
e 8 130
e 8 131
e 8 135
e 8 136
e 8 137
e 8 138
e 8 139
e 8 145
e 8 147
e 8 149
e 8 150
e 8 151
e 8 153
e 8 154
e 8 160
e 8 161
e 8 162
e 8 163
e 8 164
e 8 165
e 8 166
e 8 173
e 8 174
e 8 176
e 8 177
e 8 178
e 8 191
e 8 192
e 8 42
e 8 41
e 8 40
e 8 39
e 9 10
e 9 11
e 9 12
e 9 13
e 9 14
e 9 15
e 9 16
e 9 34
e 9 47
e 9 48
e 9 49
e 9 50
e 9 51
e 9 52
e 9 53
e 9 54
e 9 55
e 9 65
e 9 67
e 9 68
e 9 71
e 9 74
e 9 75
e 9 80
e 9 121
e 9 125
e 9 126
e 9 127
e 9 128
e 9 129
e 9 130
e 9 131
e 9 135
e 9 136
e 9 137
e 9 138
e 9 139
e 9 145
e 9 147
e 9 149
e 9 150
e 9 151
e 9 153
e 9 154
e 9 160
e 9 161
e 9 162
e 9 163
e 9 164
e 9 165
e 9 166
e 9 173
e 9 174
e 9 176
e 9 177
e 9 178
e 9 191
e 9 192
e 9 43
e 9 42
e 9 41
e 9 40
e 9 39
e 10 11
e 10 12
e 10 13
e 10 14
e 10 15
e 10 16
e 10 34
e 10 47
e 10 48
e 10 49
e 10 50
e 10 51
e 10 52
e 10 53
e 10 54
e 10 55
e 10 65
e 10 67
e 10 68
e 10 71
e 10 74
e 10 75
e 10 80
e 10 121
e 10 125
e 10 126
e 10 127
e 10 128
e 10 129
e 10 130
e 10 131
e 10 135
e 10 136
e 10 137
e 10 138
e 10 139
e 10 145
e 10 147
e 10 149
e 10 150
e 10 151
e 10 153
e 10 154
e 10 160
e 10 161
e 10 162
e 10 163
e 10 164
e 10 165
e 10 166
e 10 173
e 10 174
e 10 176
e 10 177
e 10 178
e 10 191
e 10 192
e 10 44
e 10 43
e 10 42
e 10 41
e 10 40
e 10 39
e 11 12
e 11 13
e 11 14
e 11 15
e 11 16
e 11 34
e 11 47
e 11 48
e 11 49
e 11 50
e 11 51
e 11 52
e 11 53
e 11 54
e 11 55
e 11 65
e 11 67
e 11 68
e 11 71
e 11 74
e 11 75
e 11 80
e 11 121
e 11 125
e 11 126
e 11 127
e 11 128
e 11 129
e 11 130
e 11 131
e 11 135
e 11 136
e 11 137
e 11 138
e 11 139
e 11 145
e 11 147
e 11 149
e 11 150
e 11 151
e 11 153
e 11 154
e 11 160
e 11 161
e 11 162
e 11 163
e 11 164
e 11 165
e 11 166
e 11 173
e 11 174
e 11 176
e 11 177
e 11 178
e 11 191
e 11 192
e 11 46
e 11 45
e 11 44
e 11 43
e 11 42
e 11 41
e 11 40
e 11 39
e 12 13
e 12 14
e 12 15
e 12 16
e 12 34
e 12 47
e 12 48
e 12 49
e 12 50
e 12 51
e 12 52
e 12 53
e 12 54
e 12 55
e 12 65
e 12 67
e 12 68
e 12 71
e 12 74
e 12 75
e 12 80
e 12 121
e 12 125
e 12 126
e 12 127
e 12 128
e 12 129
e 12 130
e 12 131
e 12 135
e 12 136
e 12 137
e 12 138
e 12 139
e 12 145
e 12 147
e 12 149
e 12 150
e 12 151
e 12 153
e 12 154
e 12 160
e 12 161
e 12 162
e 12 163
e 12 164
e 12 165
e 12 166
e 12 173
e 12 174
e 12 176
e 12 177
e 12 178
e 12 191
e 12 192
e 12 57
e 12 56
e 12 46
e 12 45
e 12 44
e 12 43
e 12 42
e 12 41
e 12 40
e 12 39
e 13 14
e 13 15
e 13 16
e 13 34
e 13 47
e 13 48
e 13 49
e 13 50
e 13 51
e 13 52
e 13 53
e 13 54
e 13 55
e 13 65
e 13 67
e 13 68
e 13 71
e 13 74
e 13 75
e 13 80
e 13 121
e 13 125
e 13 126
e 13 127
e 13 128
e 13 129
e 13 130
e 13 131
e 13 135
e 13 136
e 13 137
e 13 138
e 13 139
e 13 145
e 13 147
e 13 149
e 13 150
e 13 151
e 13 153
e 13 154
e 13 160
e 13 161
e 13 162
e 13 163
e 13 164
e 13 165
e 13 166
e 13 173
e 13 174
e 13 176
e 13 177
e 13 178
e 13 191
e 13 192
e 13 60
e 13 59
e 13 57
e 13 56
e 13 46
e 13 45
e 13 44
e 13 43
e 13 42
e 13 41
e 13 40
e 13 39
e 14 15
e 14 16
e 14 34
e 14 47
e 14 48
e 14 49
e 14 50
e 14 51
e 14 52
e 14 53
e 14 54
e 14 55
e 14 65
e 14 67
e 14 68
e 14 71
e 14 74
e 14 75
e 14 80
e 14 121
e 14 125
e 14 126
e 14 127
e 14 128
e 14 129
e 14 130
e 14 131
e 14 135
e 14 136
e 14 137
e 14 138
e 14 139
e 14 145
e 14 147
e 14 149
e 14 150
e 14 151
e 14 153
e 14 154
e 14 160
e 14 161
e 14 162
e 14 163
e 14 164
e 14 165
e 14 166
e 14 173
e 14 174
e 14 176
e 14 177
e 14 178
e 14 191
e 14 192
e 14 62
e 14 60
e 14 59
e 14 57
e 14 56
e 14 46
e 14 45
e 14 44
e 14 43
e 14 42
e 14 41
e 14 40
e 14 39
e 15 16
e 15 34
e 15 47
e 15 48
e 15 49
e 15 50
e 15 51
e 15 52
e 15 53
e 15 54
e 15 55
e 15 65
e 15 67
e 15 68
e 15 71
e 15 74
e 15 75
e 15 80
e 15 121
e 15 125
e 15 126
e 15 127
e 15 128
e 15 129
e 15 130
e 15 131
e 15 135
e 15 136
e 15 137
e 15 138
e 15 139
e 15 145
e 15 147
e 15 149
e 15 150
e 15 151
e 15 153
e 15 154
e 15 160
e 15 161
e 15 162
e 15 163
e 15 164
e 15 165
e 15 166
e 15 173
e 15 174
e 15 176
e 15 177
e 15 178
e 15 191
e 15 192
e 16 34
e 16 47
e 16 48
e 16 49
e 16 50
e 16 51
e 16 52
e 16 53
e 16 54
e 16 55
e 16 65
e 16 67
e 16 68
e 16 71
e 16 74
e 16 75
e 16 80
e 16 121
e 16 125
e 16 126
e 16 127
e 16 128
e 16 129
e 16 130
e 16 131
e 16 135
e 16 136
e 16 137
e 16 138
e 16 139
e 16 145
e 16 147
e 16 149
e 16 150
e 16 151
e 16 153
e 16 154
e 16 160
e 16 161
e 16 162
e 16 163
e 16 164
e 16 165
e 16 166
e 16 173
e 16 174
e 16 176
e 16 177
e 16 178
e 16 191
e 16 192
e 16 45
e 16 44
e 16 43
e 16 42
e 16 41
e 16 40
e 16 39
e 17 18
e 17 19
e 17 20
e 17 21
e 17 22
e 17 23
e 17 24
e 17 25
e 17 26
e 17 27
e 17 28
e 17 29
e 17 30
e 17 31
e 17 32
e 17 33
e 17 35
e 17 36
e 17 37
e 17 38
e 17 39
e 17 40
e 17 41
e 17 42
e 17 43
e 17 44
e 17 45
e 17 46
e 17 56
e 17 57
e 17 59
e 17 60
e 17 62
e 17 63
e 17 64
e 17 73
e 17 77
e 17 83
e 17 85
e 17 87
e 17 88
e 17 90
e 17 91
e 17 93
e 17 96
e 17 99
e 17 102
e 17 104
e 17 107
e 17 108
e 17 109
e 17 111
e 17 112
e 17 114
e 17 117
e 17 118
e 17 120
e 17 142
e 17 144
e 17 146
e 17 148
e 17 152
e 17 157
e 17 169
e 17 181
e 17 184
e 17 187
e 17 189
e 17 195
e 17 197
e 17 75
e 17 74
e 17 71
e 17 68
e 17 67
e 17 65
e 17 55
e 17 54
e 17 53
e 17 52
e 17 51
e 17 50
e 17 49
e 17 48
e 17 47
e 17 192
e 17 191
e 17 80
e 17 34
e 17 131
e 17 130
e 17 129
e 17 128
e 17 127
e 17 126
e 17 125
e 17 121
e 17 178
e 17 177
e 17 176
e 17 174
e 17 173
e 17 136
e 17 135
e 17 166
e 17 165
e 17 164
e 17 163
e 17 162
e 17 161
e 17 160
e 17 139
e 17 138
e 17 137
e 17 154
e 17 153
e 17 151
e 17 150
e 17 149
e 17 147
e 17 145
e 18 19
e 18 20
e 18 21
e 18 22
e 18 23
e 18 24
e 18 25
e 18 26
e 18 27
e 18 28
e 18 29
e 18 30
e 18 31
e 18 32
e 18 33
e 18 35
e 18 36
e 18 37
e 18 38
e 18 39
e 18 40
e 18 41
e 18 42
e 18 43
e 18 44
e 18 45
e 18 46
e 18 56
e 18 57
e 18 59
e 18 60
e 18 62
e 18 63
e 18 64
e 18 73
e 18 77
e 18 83
e 18 85
e 18 87
e 18 88
e 18 90
e 18 91
e 18 93
e 18 96
e 18 99
e 18 102
e 18 104
e 18 107
e 18 108
e 18 109
e 18 111
e 18 112
e 18 114
e 18 117
e 18 118
e 18 120
e 18 142
e 18 144
e 18 146
e 18 148
e 18 152
e 18 157
e 18 169
e 18 181
e 18 184
e 18 187
e 18 189
e 18 195
e 18 197
e 19 20
e 19 21
e 19 22
e 19 23
e 19 24
e 19 25
e 19 26
e 19 27
e 19 28
e 19 29
e 19 30
e 19 31
e 19 32
e 19 33
e 19 35
e 19 36
e 19 37
e 19 38
e 19 39
e 19 40
e 19 41
e 19 42
e 19 43
e 19 44
e 19 45
e 19 46
e 19 56
e 19 57
e 19 59
e 19 60
e 19 62
e 19 63
e 19 64
e 19 73
e 19 77
e 19 83
e 19 85
e 19 87
e 19 88
e 19 90
e 19 91
e 19 93
e 19 96
e 19 99
e 19 102
e 19 104
e 19 107
e 19 108
e 19 109
e 19 111
e 19 112
e 19 114
e 19 117
e 19 118
e 19 120
e 19 142
e 19 144
e 19 146
e 19 148
e 19 152
e 19 157
e 19 169
e 19 181
e 19 184
e 19 187
e 19 189
e 19 195
e 19 197
e 19 47
e 20 21
e 20 22
e 20 23
e 20 24
e 20 25
e 20 26
e 20 27
e 20 28
e 20 29
e 20 30
e 20 31
e 20 32
e 20 33
e 20 35
e 20 36
e 20 37
e 20 38
e 20 39
e 20 40
e 20 41
e 20 42
e 20 43
e 20 44
e 20 45
e 20 46
e 20 56
e 20 57
e 20 59
e 20 60
e 20 62
e 20 63
e 20 64
e 20 73
e 20 77
e 20 83
e 20 85
e 20 87
e 20 88
e 20 90
e 20 91
e 20 93
e 20 96
e 20 99
e 20 102
e 20 104
e 20 107
e 20 108
e 20 109
e 20 111
e 20 112
e 20 114
e 20 117
e 20 118
e 20 120
e 20 142
e 20 144
e 20 146
e 20 148
e 20 152
e 20 157
e 20 169
e 20 181
e 20 184
e 20 187
e 20 189
e 20 195
e 20 197
e 20 48
e 20 47
e 21 22
e 21 23
e 21 24
e 21 25
e 21 26
e 21 27
e 21 28
e 21 29
e 21 30
e 21 31
e 21 32
e 21 33
e 21 35
e 21 36
e 21 37
e 21 38
e 21 39
e 21 40
e 21 41
e 21 42
e 21 43
e 21 44
e 21 45
e 21 46
e 21 56
e 21 57
e 21 59
e 21 60
e 21 62
e 21 63
e 21 64
e 21 73
e 21 77
e 21 83
e 21 85
e 21 87
e 21 88
e 21 90
e 21 91
e 21 93
e 21 96
e 21 99
e 21 102
e 21 104
e 21 107
e 21 108
e 21 109
e 21 111
e 21 112
e 21 114
e 21 117
e 21 118
e 21 120
e 21 142
e 21 144
e 21 146
e 21 148
e 21 152
e 21 157
e 21 169
e 21 181
e 21 184
e 21 187
e 21 189
e 21 195
e 21 197
e 21 49
e 21 48
e 21 47
e 22 23
e 22 24
e 22 25
e 22 26
e 22 27
e 22 28
e 22 29
e 22 30
e 22 31
e 22 32
e 22 33
e 22 35
e 22 36
e 22 37
e 22 38
e 22 39
e 22 40
e 22 41
e 22 42
e 22 43
e 22 44
e 22 45
e 22 46
e 22 56
e 22 57
e 22 59
e 22 60
e 22 62
e 22 63
e 22 64
e 22 73
e 22 77
e 22 83
e 22 85
e 22 87
e 22 88
e 22 90
e 22 91
e 22 93
e 22 96
e 22 99
e 22 102
e 22 104
e 22 107
e 22 108
e 22 109
e 22 111
e 22 112
e 22 114
e 22 117
e 22 118
e 22 120
e 22 142
e 22 144
e 22 146
e 22 148
e 22 152
e 22 157
e 22 169
e 22 181
e 22 184
e 22 187
e 22 189
e 22 195
e 22 197
e 22 50
e 22 49
e 22 48
e 22 47
e 23 24
e 23 25
e 23 26
e 23 27
e 23 28
e 23 29
e 23 30
e 23 31
e 23 32
e 23 33
e 23 35
e 23 36
e 23 37
e 23 38
e 23 39
e 23 40
e 23 41
e 23 42
e 23 43
e 23 44
e 23 45
e 23 46
e 23 56
e 23 57
e 23 59
e 23 60
e 23 62
e 23 63
e 23 64
e 23 73
e 23 77
e 23 83
e 23 85
e 23 87
e 23 88
e 23 90
e 23 91
e 23 93
e 23 96
e 23 99
e 23 102
e 23 104
e 23 107
e 23 108
e 23 109
e 23 111
e 23 112
e 23 114
e 23 117
e 23 118
e 23 120
e 23 142
e 23 144
e 23 146
e 23 148
e 23 152
e 23 157
e 23 169
e 23 181
e 23 184
e 23 187
e 23 189
e 23 195
e 23 197
e 23 51
e 23 50
e 23 49
e 23 48
e 23 47
e 24 25
e 24 26
e 24 27
e 24 28
e 24 29
e 24 30
e 24 31
e 24 32
e 24 33
e 24 35
e 24 36
e 24 37
e 24 38
e 24 39
e 24 40
e 24 41
e 24 42
e 24 43
e 24 44
e 24 45
e 24 46
e 24 56
e 24 57
e 24 59
e 24 60
e 24 62
e 24 63
e 24 64
e 24 73
e 24 77
e 24 83
e 24 85
e 24 87
e 24 88
e 24 90
e 24 91
e 24 93
e 24 96
e 24 99
e 24 102
e 24 104
e 24 107
e 24 108
e 24 109
e 24 111
e 24 112
e 24 114
e 24 117
e 24 118
e 24 120
e 24 142
e 24 144
e 24 146
e 24 148
e 24 152
e 24 157
e 24 169
e 24 181
e 24 184
e 24 187
e 24 189
e 24 195
e 24 197
e 24 52
e 24 51
e 24 50
e 24 49
e 24 48
e 24 47
e 25 26
e 25 27
e 25 28
e 25 29
e 25 30
e 25 31
e 25 32
e 25 33
e 25 35
e 25 36
e 25 37
e 25 38
e 25 39
e 25 40
e 25 41
e 25 42
e 25 43
e 25 44
e 25 45
e 25 46
e 25 56
e 25 57
e 25 59
e 25 60
e 25 62
e 25 63
e 25 64
e 25 73
e 25 77
e 25 83
e 25 85
e 25 87
e 25 88
e 25 90
e 25 91
e 25 93
e 25 96
e 25 99
e 25 102
e 25 104
e 25 107
e 25 108
e 25 109
e 25 111
e 25 112
e 25 114
e 25 117
e 25 118
e 25 120
e 25 142
e 25 144
e 25 146
e 25 148
e 25 152
e 25 157
e 25 169
e 25 181
e 25 184
e 25 187
e 25 189
e 25 195
e 25 197
e 25 53
e 25 52
e 25 51
e 25 50
e 25 49
e 25 48
e 25 47
e 26 27
e 26 28
e 26 29
e 26 30
e 26 31
e 26 32
e 26 33
e 26 35
e 26 36
e 26 37
e 26 38
e 26 39
e 26 40
e 26 41
e 26 42
e 26 43
e 26 44
e 26 45
e 26 46
e 26 56
e 26 57
e 26 59
e 26 60
e 26 62
e 26 63
e 26 64
e 26 73
e 26 77
e 26 83
e 26 85
e 26 87
e 26 88
e 26 90
e 26 91
e 26 93
e 26 96
e 26 99
e 26 102
e 26 104
e 26 107
e 26 108
e 26 109
e 26 111
e 26 112
e 26 114
e 26 117
e 26 118
e 26 120
e 26 142
e 26 144
e 26 146
e 26 148
e 26 152
e 26 157
e 26 169
e 26 181
e 26 184
e 26 187
e 26 189
e 26 195
e 26 197
e 26 54
e 26 53
e 26 52
e 26 51
e 26 50
e 26 49
e 26 48
e 26 47
e 27 28
e 27 29
e 27 30
e 27 31
e 27 32
e 27 33
e 27 35
e 27 36
e 27 37
e 27 38
e 27 39
e 27 40
e 27 41
e 27 42
e 27 43
e 27 44
e 27 45
e 27 46
e 27 56
e 27 57
e 27 59
e 27 60
e 27 62
e 27 63
e 27 64
e 27 73
e 27 77
e 27 83
e 27 85
e 27 87
e 27 88
e 27 90
e 27 91
e 27 93
e 27 96
e 27 99
e 27 102
e 27 104
e 27 107
e 27 108
e 27 109
e 27 111
e 27 112
e 27 114
e 27 117
e 27 118
e 27 120
e 27 142
e 27 144
e 27 146
e 27 148
e 27 152
e 27 157
e 27 169
e 27 181
e 27 184
e 27 187
e 27 189
e 27 195
e 27 197
e 28 29
e 28 30
e 28 31
e 28 32
e 28 33
e 28 35
e 28 36
e 28 37
e 28 38
e 28 39
e 28 40
e 28 41
e 28 42
e 28 43
e 28 44
e 28 45
e 28 46
e 28 56
e 28 57
e 28 59
e 28 60
e 28 62
e 28 63
e 28 64
e 28 73
e 28 77
e 28 83
e 28 85
e 28 87
e 28 88
e 28 90
e 28 91
e 28 93
e 28 96
e 28 99
e 28 102
e 28 104
e 28 107
e 28 108
e 28 109
e 28 111
e 28 112
e 28 114
e 28 117
e 28 118
e 28 120
e 28 142
e 28 144
e 28 146
e 28 148
e 28 152
e 28 157
e 28 169
e 28 181
e 28 184
e 28 187
e 28 189
e 28 195
e 28 197
e 29 30
e 29 31
e 29 32
e 29 33
e 29 35
e 29 36
e 29 37
e 29 38
e 29 39
e 29 40
e 29 41
e 29 42
e 29 43
e 29 44
e 29 45
e 29 46
e 29 56
e 29 57
e 29 59
e 29 60
e 29 62
e 29 63
e 29 64
e 29 73
e 29 77
e 29 83
e 29 85
e 29 87
e 29 88
e 29 90
e 29 91
e 29 93
e 29 96
e 29 99
e 29 102
e 29 104
e 29 107
e 29 108
e 29 109
e 29 111
e 29 112
e 29 114
e 29 117
e 29 118
e 29 120
e 29 142
e 29 144
e 29 146
e 29 148
e 29 152
e 29 157
e 29 169
e 29 181
e 29 184
e 29 187
e 29 189
e 29 195
e 29 197
e 30 31
e 30 32
e 30 33
e 30 35
e 30 36
e 30 37
e 30 38
e 30 39
e 30 40
e 30 41
e 30 42
e 30 43
e 30 44
e 30 45
e 30 46
e 30 56
e 30 57
e 30 59
e 30 60
e 30 62
e 30 63
e 30 64
e 30 73
e 30 77
e 30 83
e 30 85
e 30 87
e 30 88
e 30 90
e 30 91
e 30 93
e 30 96
e 30 99
e 30 102
e 30 104
e 30 107
e 30 108
e 30 109
e 30 111
e 30 112
e 30 114
e 30 117
e 30 118
e 30 120
e 30 142
e 30 144
e 30 146
e 30 148
e 30 152
e 30 157
e 30 169
e 30 181
e 30 184
e 30 187
e 30 189
e 30 195
e 30 197
e 31 32
e 31 33
e 31 35
e 31 36
e 31 37
e 31 38
e 31 39
e 31 40
e 31 41
e 31 42
e 31 43
e 31 44
e 31 45
e 31 46
e 31 56
e 31 57
e 31 59
e 31 60
e 31 62
e 31 63
e 31 64
e 31 73
e 31 77
e 31 83
e 31 85
e 31 87
e 31 88
e 31 90
e 31 91
e 31 93
e 31 96
e 31 99
e 31 102
e 31 104
e 31 107
e 31 108
e 31 109
e 31 111
e 31 112
e 31 114
e 31 117
e 31 118
e 31 120
e 31 142
e 31 144
e 31 146
e 31 148
e 31 152
e 31 157
e 31 169
e 31 181
e 31 184
e 31 187
e 31 189
e 31 195
e 31 197
e 32 33
e 32 35
e 32 36
e 32 37
e 32 38
e 32 39
e 32 40
e 32 41
e 32 42
e 32 43
e 32 44
e 32 45
e 32 46
e 32 56
e 32 57
e 32 59
e 32 60
e 32 62
e 32 63
e 32 64
e 32 73
e 32 77
e 32 83
e 32 85
e 32 87
e 32 88
e 32 90
e 32 91
e 32 93
e 32 96
e 32 99
e 32 102
e 32 104
e 32 107
e 32 108
e 32 109
e 32 111
e 32 112
e 32 114
e 32 117
e 32 118
e 32 120
e 32 142
e 32 144
e 32 146
e 32 148
e 32 152
e 32 157
e 32 169
e 32 181
e 32 184
e 32 187
e 32 189
e 32 195
e 32 197
e 33 111
e 33 107
e 33 104
e 33 99
e 33 91
e 33 88
e 33 63
e 33 117
e 33 118
e 33 120
e 33 114
e 33 83
e 33 87
e 33 62
e 33 85
e 33 64
e 33 59
e 33 56
e 33 112
e 33 60
e 33 57
e 33 46
e 33 45
e 33 44
e 33 43
e 33 42
e 33 41
e 33 40
e 33 39
e 33 36
e 33 181
e 33 37
e 33 169
e 33 35
e 33 157
e 33 152
e 33 148
e 33 146
e 33 144
e 33 142
e 34 80
e 34 74
e 34 67
e 34 131
e 34 75
e 34 71
e 34 65
e 34 55
e 34 54
e 34 53
e 34 52
e 34 51
e 34 50
e 34 49
e 34 48
e 34 47
e 34 135
e 35 107
e 35 104
e 35 99
e 35 91
e 35 88
e 35 63
e 35 117
e 35 118
e 35 120
e 35 114
e 35 83
e 35 111
e 35 87
e 35 62
e 35 85
e 35 112
e 35 59
e 35 56
e 35 60
e 35 57
e 35 46
e 35 45
e 35 44
e 35 43
e 35 42
e 35 41
e 35 40
e 35 39
e 35 157
e 35 64
e 35 152
e 35 148
e 35 146
e 35 144
e 36 111
e 36 107
e 36 104
e 36 99
e 36 91
e 36 88
e 36 63
e 36 117
e 36 118
e 36 120
e 36 114
e 36 83
e 36 87
e 36 62
e 36 85
e 36 112
e 36 59
e 36 56
e 36 60
e 36 57
e 36 46
e 36 45
e 36 44
e 36 43
e 36 42
e 36 41
e 36 40
e 36 39
e 36 181
e 36 64
e 37 111
e 37 107
e 37 104
e 37 99
e 37 91
e 37 88
e 37 63
e 37 117
e 37 118
e 37 120
e 37 114
e 37 83
e 37 87
e 37 62
e 37 85
e 37 112
e 37 59
e 37 56
e 37 60
e 37 57
e 37 46
e 37 45
e 37 44
e 37 43
e 37 42
e 37 41
e 37 40
e 37 39
e 37 169
e 37 64
e 38 189
e 38 187
e 38 59
e 38 56
e 38 60
e 38 57
e 38 46
e 38 45
e 38 44
e 38 43
e 38 42
e 38 41
e 38 40
e 38 39
e 38 195
e 39 77
e 39 73
e 39 64
e 39 63
e 39 62
e 39 60
e 39 59
e 39 57
e 39 56
e 39 46
e 39 45
e 39 44
e 39 43
e 39 42
e 39 41
e 39 40
e 39 197
e 39 189
e 39 187
e 39 184
e 39 195
e 39 120
e 39 118
e 39 117
e 39 114
e 39 112
e 39 111
e 39 109
e 39 108
e 39 107
e 39 104
e 39 102
e 39 99
e 39 96
e 39 93
e 39 91
e 39 90
e 39 88
e 39 87
e 39 85
e 39 83
e 39 181
e 39 169
e 39 157
e 39 152
e 39 148
e 39 146
e 39 144
e 39 142
e 40 77
e 40 73
e 40 64
e 40 63
e 40 62
e 40 60
e 40 59
e 40 57
e 40 56
e 40 46
e 40 45
e 40 44
e 40 43
e 40 42
e 40 41
e 40 197
e 40 189
e 40 187
e 40 184
e 40 195
e 40 120
e 40 118
e 40 117
e 40 114
e 40 112
e 40 111
e 40 109
e 40 108
e 40 107
e 40 104
e 40 102
e 40 99
e 40 96
e 40 93
e 40 91
e 40 90
e 40 88
e 40 87
e 40 85
e 40 83
e 40 181
e 40 169
e 40 157
e 40 152
e 40 148
e 40 146
e 40 144
e 40 142
e 41 77
e 41 73
e 41 64
e 41 63
e 41 62
e 41 60
e 41 59
e 41 57
e 41 56
e 41 46
e 41 45
e 41 44
e 41 43
e 41 42
e 41 197
e 41 189
e 41 187
e 41 184
e 41 195
e 41 120
e 41 118
e 41 117
e 41 114
e 41 112
e 41 111
e 41 109
e 41 108
e 41 107
e 41 104
e 41 102
e 41 99
e 41 96
e 41 93
e 41 91
e 41 90
e 41 88
e 41 87
e 41 85
e 41 83
e 41 181
e 41 169
e 41 157
e 41 152
e 41 148
e 41 146
e 41 144
e 41 142
e 42 77
e 42 73
e 42 64
e 42 63
e 42 62
e 42 60
e 42 59
e 42 57
e 42 56
e 42 46
e 42 45
e 42 44
e 42 43
e 42 197
e 42 189
e 42 187
e 42 184
e 42 195
e 42 120
e 42 118
e 42 117
e 42 114
e 42 112
e 42 111
e 42 109
e 42 108
e 42 107
e 42 104
e 42 102
e 42 99
e 42 96
e 42 93
e 42 91
e 42 90
e 42 88
e 42 87
e 42 85
e 42 83
e 42 181
e 42 169
e 42 157
e 42 152
e 42 148
e 42 146
e 42 144
e 42 142
e 43 77
e 43 73
e 43 64
e 43 63
e 43 62
e 43 60
e 43 59
e 43 57
e 43 56
e 43 46
e 43 45
e 43 44
e 43 197
e 43 189
e 43 187
e 43 184
e 43 195
e 43 120
e 43 118
e 43 117
e 43 114
e 43 112
e 43 111
e 43 109
e 43 108
e 43 107
e 43 104
e 43 102
e 43 99
e 43 96
e 43 93
e 43 91
e 43 90
e 43 88
e 43 87
e 43 85
e 43 83
e 43 181
e 43 169
e 43 157
e 43 152
e 43 148
e 43 146
e 43 144
e 43 142
e 44 77
e 44 73
e 44 64
e 44 63
e 44 62
e 44 60
e 44 59
e 44 57
e 44 56
e 44 46
e 44 45
e 44 197
e 44 189
e 44 187
e 44 184
e 44 195
e 44 120
e 44 118
e 44 117
e 44 114
e 44 112
e 44 111
e 44 109
e 44 108
e 44 107
e 44 104
e 44 102
e 44 99
e 44 96
e 44 93
e 44 91
e 44 90
e 44 88
e 44 87
e 44 85
e 44 83
e 44 181
e 44 169
e 44 157
e 44 152
e 44 148
e 44 146
e 44 144
e 44 142
e 45 77
e 45 73
e 45 64
e 45 63
e 45 62
e 45 60
e 45 59
e 45 57
e 45 56
e 45 46
e 45 197
e 45 189
e 45 187
e 45 184
e 45 195
e 45 120
e 45 118
e 45 117
e 45 114
e 45 112
e 45 111
e 45 109
e 45 108
e 45 107
e 45 104
e 45 102
e 45 99
e 45 96
e 45 93
e 45 91
e 45 90
e 45 88
e 45 87
e 45 85
e 45 83
e 45 181
e 45 169
e 45 157
e 45 152
e 45 148
e 45 146
e 45 144
e 45 142
e 46 77
e 46 73
e 46 64
e 46 63
e 46 62
e 46 60
e 46 59
e 46 57
e 46 56
e 46 197
e 46 189
e 46 187
e 46 184
e 46 195
e 46 120
e 46 118
e 46 117
e 46 114
e 46 112
e 46 111
e 46 109
e 46 108
e 46 107
e 46 104
e 46 102
e 46 99
e 46 96
e 46 93
e 46 91
e 46 90
e 46 88
e 46 87
e 46 85
e 46 83
e 46 181
e 46 169
e 46 157
e 46 152
e 46 148
e 46 146
e 46 144
e 46 142
e 47 75
e 47 74
e 47 71
e 47 68
e 47 67
e 47 65
e 47 55
e 47 54
e 47 53
e 47 52
e 47 51
e 47 50
e 47 49
e 47 48
e 47 192
e 47 191
e 47 80
e 47 131
e 47 130
e 47 129
e 47 128
e 47 127
e 47 126
e 47 125
e 47 121
e 47 178
e 47 177
e 47 176
e 47 174
e 47 173
e 47 136
e 47 135
e 47 166
e 47 165
e 47 164
e 47 163
e 47 162
e 47 161
e 47 160
e 47 139
e 47 138
e 47 137
e 47 154
e 47 153
e 47 151
e 47 150
e 47 149
e 47 147
e 47 145
e 48 75
e 48 74
e 48 71
e 48 68
e 48 67
e 48 65
e 48 55
e 48 54
e 48 53
e 48 52
e 48 51
e 48 50
e 48 49
e 48 192
e 48 191
e 48 80
e 48 131
e 48 130
e 48 129
e 48 128
e 48 127
e 48 126
e 48 125
e 48 121
e 48 178
e 48 177
e 48 176
e 48 174
e 48 173
e 48 136
e 48 135
e 48 166
e 48 165
e 48 164
e 48 163
e 48 162
e 48 161
e 48 160
e 48 139
e 48 138
e 48 137
e 48 154
e 48 153
e 48 151
e 48 150
e 48 149
e 48 147
e 48 145
e 49 75
e 49 74
e 49 71
e 49 68
e 49 67
e 49 65
e 49 55
e 49 54
e 49 53
e 49 52
e 49 51
e 49 50
e 49 192
e 49 191
e 49 80
e 49 131
e 49 130
e 49 129
e 49 128
e 49 127
e 49 126
e 49 125
e 49 121
e 49 178
e 49 177
e 49 176
e 49 174
e 49 173
e 49 136
e 49 135
e 49 166
e 49 165
e 49 164
e 49 163
e 49 162
e 49 161
e 49 160
e 49 139
e 49 138
e 49 137
e 49 154
e 49 153
e 49 151
e 49 150
e 49 149
e 49 147
e 49 145
e 50 75
e 50 74
e 50 71
e 50 68
e 50 67
e 50 65
e 50 55
e 50 54
e 50 53
e 50 52
e 50 51
e 50 192
e 50 191
e 50 80
e 50 131
e 50 130
e 50 129
e 50 128
e 50 127
e 50 126
e 50 125
e 50 121
e 50 178
e 50 177
e 50 176
e 50 174
e 50 173
e 50 136
e 50 135
e 50 166
e 50 165
e 50 164
e 50 163
e 50 162
e 50 161
e 50 160
e 50 139
e 50 138
e 50 137
e 50 154
e 50 153
e 50 151
e 50 150
e 50 149
e 50 147
e 50 145
e 51 75
e 51 74
e 51 71
e 51 68
e 51 67
e 51 65
e 51 55
e 51 54
e 51 53
e 51 52
e 51 192
e 51 191
e 51 80
e 51 131
e 51 130
e 51 129
e 51 128
e 51 127
e 51 126
e 51 125
e 51 121
e 51 178
e 51 177
e 51 176
e 51 174
e 51 173
e 51 136
e 51 135
e 51 166
e 51 165
e 51 164
e 51 163
e 51 162
e 51 161
e 51 160
e 51 139
e 51 138
e 51 137
e 51 154
e 51 153
e 51 151
e 51 150
e 51 149
e 51 147
e 51 145
e 52 75
e 52 74
e 52 71
e 52 68
e 52 67
e 52 65
e 52 55
e 52 54
e 52 53
e 52 192
e 52 191
e 52 80
e 52 131
e 52 130
e 52 129
e 52 128
e 52 127
e 52 126
e 52 125
e 52 121
e 52 178
e 52 177
e 52 176
e 52 174
e 52 173
e 52 136
e 52 135
e 52 166
e 52 165
e 52 164
e 52 163
e 52 162
e 52 161
e 52 160
e 52 139
e 52 138
e 52 137
e 52 154
e 52 153
e 52 151
e 52 150
e 52 149
e 52 147
e 52 145
e 53 75
e 53 74
e 53 71
e 53 68
e 53 67
e 53 65
e 53 55
e 53 54
e 53 192
e 53 191
e 53 80
e 53 131
e 53 130
e 53 129
e 53 128
e 53 127
e 53 126
e 53 125
e 53 121
e 53 178
e 53 177
e 53 176
e 53 174
e 53 173
e 53 136
e 53 135
e 53 166
e 53 165
e 53 164
e 53 163
e 53 162
e 53 161
e 53 160
e 53 139
e 53 138
e 53 137
e 53 154
e 53 153
e 53 151
e 53 150
e 53 149
e 53 147
e 53 145
e 54 75
e 54 74
e 54 71
e 54 68
e 54 67
e 54 65
e 54 55
e 54 192
e 54 191
e 54 80
e 54 131
e 54 130
e 54 129
e 54 128
e 54 127
e 54 126
e 54 125
e 54 121
e 54 178
e 54 177
e 54 176
e 54 174
e 54 173
e 54 136
e 54 135
e 54 166
e 54 165
e 54 164
e 54 163
e 54 162
e 54 161
e 54 160
e 54 139
e 54 138
e 54 137
e 54 154
e 54 153
e 54 151
e 54 150
e 54 149
e 54 147
e 54 145
e 55 75
e 55 74
e 55 71
e 55 68
e 55 67
e 55 65
e 55 192
e 55 191
e 55 80
e 55 131
e 55 130
e 55 129
e 55 128
e 55 127
e 55 126
e 55 125
e 55 121
e 55 178
e 55 177
e 55 176
e 55 174
e 55 173
e 55 136
e 55 135
e 55 166
e 55 165
e 55 164
e 55 163
e 55 162
e 55 161
e 55 160
e 55 139
e 55 138
e 55 137
e 55 154
e 55 153
e 55 151
e 55 150
e 55 149
e 55 147
e 55 145
e 56 77
e 56 73
e 56 64
e 56 63
e 56 62
e 56 60
e 56 59
e 56 57
e 56 197
e 56 189
e 56 187
e 56 184
e 56 195
e 56 120
e 56 118
e 56 117
e 56 114
e 56 112
e 56 111
e 56 109
e 56 108
e 56 107
e 56 104
e 56 102
e 56 99
e 56 96
e 56 93
e 56 91
e 56 90
e 56 88
e 56 87
e 56 85
e 56 83
e 56 181
e 56 169
e 56 157
e 56 152
e 56 148
e 56 146
e 56 144
e 56 142
e 57 77
e 57 73
e 57 64
e 57 63
e 57 62
e 57 60
e 57 59
e 57 197
e 57 189
e 57 187
e 57 184
e 57 195
e 57 120
e 57 118
e 57 117
e 57 114
e 57 112
e 57 111
e 57 109
e 57 108
e 57 107
e 57 104
e 57 102
e 57 99
e 57 96
e 57 93
e 57 91
e 57 90
e 57 88
e 57 87
e 57 85
e 57 83
e 57 181
e 57 169
e 57 157
e 57 152
e 57 148
e 57 146
e 57 144
e 57 142
e 59 77
e 59 73
e 59 64
e 59 63
e 59 62
e 59 60
e 59 197
e 59 189
e 59 187
e 59 184
e 59 195
e 59 120
e 59 118
e 59 117
e 59 114
e 59 112
e 59 111
e 59 109
e 59 108
e 59 107
e 59 104
e 59 102
e 59 99
e 59 96
e 59 93
e 59 91
e 59 90
e 59 88
e 59 87
e 59 85
e 59 83
e 59 181
e 59 169
e 59 157
e 59 152
e 59 148
e 59 146
e 59 144
e 59 142
e 60 77
e 60 73
e 60 64
e 60 63
e 60 62
e 60 197
e 60 189
e 60 187
e 60 184
e 60 195
e 60 120
e 60 118
e 60 117
e 60 114
e 60 112
e 60 111
e 60 109
e 60 108
e 60 107
e 60 104
e 60 102
e 60 99
e 60 96
e 60 93
e 60 91
e 60 90
e 60 88
e 60 87
e 60 85
e 60 83
e 60 181
e 60 169
e 60 157
e 60 152
e 60 148
e 60 146
e 60 144
e 60 142
e 62 77
e 62 73
e 62 64
e 62 63
e 62 197
e 62 187
e 62 184
e 62 120
e 62 118
e 62 117
e 62 114
e 62 112
e 62 111
e 62 109
e 62 108
e 62 107
e 62 104
e 62 102
e 62 99
e 62 96
e 62 93
e 62 91
e 62 90
e 62 88
e 62 87
e 62 85
e 62 83
e 62 181
e 62 169
e 62 157
e 62 152
e 62 148
e 62 146
e 62 144
e 62 142
e 63 77
e 63 73
e 63 64
e 63 120
e 63 118
e 63 117
e 63 114
e 63 112
e 63 111
e 63 109
e 63 108
e 63 107
e 63 104
e 63 102
e 63 99
e 63 96
e 63 93
e 63 91
e 63 90
e 63 88
e 63 87
e 63 85
e 63 83
e 63 181
e 63 169
e 63 157
e 63 152
e 63 148
e 63 146
e 63 144
e 63 142
e 64 77
e 64 73
e 64 120
e 64 118
e 64 117
e 64 114
e 64 112
e 64 111
e 64 109
e 64 108
e 64 107
e 64 104
e 64 102
e 64 99
e 64 96
e 64 93
e 64 91
e 64 90
e 64 88
e 64 87
e 64 85
e 64 83
e 64 181
e 64 169
e 64 157
e 64 152
e 64 148
e 64 146
e 64 144
e 64 142
e 65 75
e 65 74
e 65 71
e 65 68
e 65 67
e 65 80
e 65 131
e 65 130
e 65 129
e 65 128
e 65 127
e 65 126
e 65 125
e 65 121
e 65 178
e 65 177
e 65 176
e 65 174
e 65 173
e 65 136
e 65 135
e 65 166
e 65 165
e 65 164
e 65 163
e 65 162
e 65 161
e 65 160
e 65 139
e 65 138
e 65 137
e 65 154
e 65 153
e 65 151
e 65 150
e 65 149
e 65 147
e 65 145
e 67 75
e 67 74
e 67 71
e 67 68
e 67 80
e 67 131
e 67 130
e 67 129
e 67 128
e 67 127
e 67 126
e 67 125
e 67 121
e 67 178
e 67 177
e 67 176
e 67 174
e 67 173
e 67 136
e 67 135
e 67 166
e 67 165
e 67 164
e 67 163
e 67 162
e 67 161
e 67 160
e 67 139
e 67 138
e 67 137
e 67 154
e 67 153
e 67 151
e 67 150
e 67 149
e 67 147
e 67 145
e 71 75
e 71 74
e 71 80
e 71 131
e 71 130
e 71 129
e 71 128
e 71 127
e 71 126
e 71 125
e 71 121
e 71 178
e 71 177
e 71 176
e 71 174
e 71 173
e 71 136
e 71 135
e 71 166
e 71 165
e 71 164
e 71 163
e 71 162
e 71 161
e 71 160
e 71 139
e 71 138
e 71 137
e 71 154
e 71 153
e 71 151
e 71 150
e 71 149
e 71 147
e 71 145
e 73 77
e 73 120
e 73 118
e 73 117
e 73 114
e 73 112
e 73 111
e 73 109
e 73 108
e 73 107
e 73 104
e 73 102
e 73 99
e 73 96
e 73 93
e 73 91
e 73 90
e 73 88
e 73 87
e 73 85
e 73 83
e 74 75
e 74 80
e 74 131
e 74 130
e 74 129
e 74 128
e 74 127
e 74 126
e 74 125
e 74 121
e 74 178
e 74 177
e 74 176
e 74 174
e 74 173
e 74 136
e 74 135
e 74 166
e 74 165
e 74 164
e 74 163
e 74 162
e 74 161
e 74 160
e 74 139
e 74 138
e 74 137
e 74 154
e 74 153
e 74 151
e 74 150
e 74 149
e 74 147
e 74 145
e 75 80
e 75 131
e 75 130
e 75 129
e 75 128
e 75 127
e 75 126
e 75 125
e 75 121
e 75 178
e 75 177
e 75 176
e 75 174
e 75 173
e 75 136
e 75 135
e 75 166
e 75 165
e 75 164
e 75 163
e 75 162
e 75 161
e 75 160
e 75 139
e 75 138
e 75 137
e 75 154
e 75 153
e 75 151
e 75 150
e 75 149
e 75 147
e 75 145
e 80 131
e 80 130
e 80 129
e 80 128
e 80 127
e 80 126
e 80 125
e 80 121
e 80 178
e 80 177
e 80 176
e 80 174
e 80 173
e 80 136
e 80 135
e 80 166
e 80 165
e 80 164
e 80 163
e 80 162
e 80 161
e 80 160
e 80 139
e 80 138
e 80 137
e 80 154
e 80 153
e 80 151
e 80 150
e 80 149
e 80 147
e 80 145
e 83 120
e 83 118
e 83 117
e 83 114
e 83 112
e 83 111
e 83 109
e 83 108
e 83 107
e 83 104
e 83 102
e 83 99
e 83 96
e 83 93
e 83 91
e 83 90
e 83 88
e 83 87
e 83 85
e 83 181
e 83 169
e 83 157
e 83 152
e 83 148
e 83 146
e 83 144
e 83 142
e 85 120
e 85 118
e 85 117
e 85 114
e 85 112
e 85 111
e 85 109
e 85 108
e 85 107
e 85 104
e 85 102
e 85 99
e 85 96
e 85 93
e 85 91
e 85 90
e 85 88
e 85 87
e 85 181
e 85 169
e 85 157
e 85 152
e 85 148
e 85 146
e 85 144
e 85 142
e 87 120
e 87 118
e 87 117
e 87 114
e 87 112
e 87 111
e 87 109
e 87 108
e 87 107
e 87 104
e 87 102
e 87 99
e 87 96
e 87 93
e 87 91
e 87 90
e 87 88
e 87 181
e 87 169
e 87 157
e 87 152
e 87 148
e 87 146
e 87 144
e 87 142
e 88 120
e 88 118
e 88 117
e 88 114
e 88 112
e 88 111
e 88 109
e 88 108
e 88 107
e 88 104
e 88 102
e 88 99
e 88 96
e 88 93
e 88 91
e 88 90
e 88 181
e 88 169
e 88 157
e 88 152
e 88 148
e 88 146
e 88 144
e 88 142
e 91 120
e 91 118
e 91 117
e 91 114
e 91 112
e 91 111
e 91 109
e 91 108
e 91 107
e 91 104
e 91 102
e 91 99
e 91 96
e 91 93
e 91 181
e 91 169
e 91 157
e 91 152
e 91 148
e 91 146
e 91 144
e 91 142
e 93 108
e 93 107
e 93 104
e 93 102
e 93 99
e 93 96
e 96 111
e 96 109
e 96 108
e 96 107
e 96 104
e 96 102
e 96 99
e 99 120
e 99 118
e 99 117
e 99 114
e 99 112
e 99 111
e 99 109
e 99 108
e 99 107
e 99 104
e 99 102
e 99 181
e 99 169
e 99 157
e 99 152
e 99 148
e 99 146
e 99 144
e 99 142
e 102 107
e 102 104
e 104 120
e 104 118
e 104 117
e 104 114
e 104 112
e 104 111
e 104 109
e 104 108
e 104 107
e 104 181
e 104 169
e 104 157
e 104 152
e 104 148
e 104 146
e 104 144
e 104 142
e 107 120
e 107 118
e 107 117
e 107 114
e 107 112
e 107 111
e 107 109
e 107 108
e 107 181
e 107 169
e 107 157
e 107 152
e 107 148
e 107 146
e 107 144
e 107 142
e 108 114
e 108 112
e 108 111
e 108 109
e 109 118
e 109 117
e 109 114
e 109 112
e 109 111
e 111 120
e 111 118
e 111 117
e 111 114
e 111 112
e 111 181
e 111 169
e 111 157
e 111 152
e 111 148
e 111 146
e 111 144
e 111 142
e 112 120
e 112 118
e 112 117
e 112 114
e 112 181
e 112 169
e 112 157
e 112 152
e 112 148
e 112 146
e 112 144
e 112 142
e 114 120
e 114 118
e 114 117
e 114 181
e 114 169
e 114 157
e 114 152
e 114 148
e 114 146
e 114 144
e 114 142
e 117 120
e 117 118
e 117 181
e 117 169
e 117 157
e 117 152
e 117 148
e 117 146
e 117 144
e 117 142
e 118 120
e 118 181
e 118 169
e 118 157
e 118 152
e 118 148
e 118 146
e 118 144
e 118 142
e 120 181
e 120 169
e 120 157
e 120 152
e 120 148
e 120 146
e 120 144
e 120 142
e 131 178
e 131 177
e 131 176
e 131 174
e 131 173
e 137 138
e 144 152
e 144 148
e 144 146
e 145 150
e 145 149
e 145 147
e 147 149
e 151 153
e 160 163
e 160 162
e 160 161
e 161 162
e 164 165
e 184 189
e 184 187
e 187 189
e 187 195
e 189 195
